# Solution for model MIP
# Objective value = -4.6527918846952377e+02
q_s0 3.8400000000002737e-02
q_s1 0
q_s2 5.0000000000000222e-01
q_s3 2.9100000000000022e-02
q_s4 1.4375000000000276e-02
q_s5 0
q_s6 7.5624999999997333e-02
q_s7 2.4375000000000036e-02
q_s8 0
q_s9 2.9999999999749324e-04
q_s10 5.9999999999997666e-02
q_s11 2.3562499999999972e-01
q_s12 9.0000000000250990e-04
q_s13 0
q_s14 0.0213
theta -3.2390399999999636e+02
z_w0_k0_m0 7.8055284552845772e-01
z_w0_k1_m0 8.3200000000000196e-01
z_w1_k0_m0 7.8055284552845772e-01
z_w1_k1_m0 8.3200000000000007e-01
z_w2_k0_m0 7.8055284552845772e-01
z_w2_k1_m0 8.3200000000000196e-01
z_w3_k0_m0 7.8055284552845761e-01
z_w3_k1_m0 8.3200000000000007e-01
z_w4_k0_m0 7.8055284552845772e-01
z_w4_k1_m0 8.3200000000000196e-01
pi_w0_t0_k0 0
pi_w0_t0_k1 0
pi_w0_t1_k0 0
pi_w0_t1_k1 0
pi_w0_t2_k0 0
pi_w0_t2_k1 0
pi_w0_t3_k0 0
pi_w0_t3_k1 0
pi_w0_t4_k0 0
pi_w0_t4_k1 0
pi_w0_t5_k0 0
pi_w0_t5_k1 0
pi_w0_t6_k0 9.3816447779862699e-01
pi_w0_t6_k1 1.0000000000000022e+00
pi_w0_t7_k0 6.1835522201373005e-02
pi_w0_t7_k1 0
pi_w1_t0_k0 0
pi_w1_t0_k1 0
pi_w1_t1_k0 0
pi_w1_t1_k1 0
pi_w1_t2_k0 0
pi_w1_t2_k1 0
pi_w1_t3_k0 4.5934959349591353e-01
pi_w1_t3_k1 0
pi_w1_t4_k0 0
pi_w1_t4_k1 0
pi_w1_t5_k0 0
pi_w1_t5_k1 0
pi_w1_t6_k0 5.4065040650408647e-01
pi_w1_t6_k1 1
pi_w1_t7_k0 0
pi_w1_t7_k1 0
pi_w2_t0_k0 0
pi_w2_t0_k1 0
pi_w2_t1_k0 0
pi_w2_t1_k1 0
pi_w2_t2_k0 0
pi_w2_t2_k1 0
pi_w2_t3_k0 4.5934959349591392e-01
pi_w2_t3_k1 0
pi_w2_t4_k0 0
pi_w2_t4_k1 0
pi_w2_t5_k0 0
pi_w2_t5_k1 0
pi_w2_t6_k0 5.4065040650408613e-01
pi_w2_t6_k1 1.0000000000000022e+00
pi_w2_t7_k0 0
pi_w2_t7_k1 0
pi_w3_t0_k0 0
pi_w3_t0_k1 0
pi_w3_t1_k0 0
pi_w3_t1_k1 0
pi_w3_t2_k0 0
pi_w3_t2_k1 0
pi_w3_t3_k0 4.5934959349591337e-01
pi_w3_t3_k1 0
pi_w3_t4_k0 0
pi_w3_t4_k1 0
pi_w3_t5_k0 0
pi_w3_t5_k1 0
pi_w3_t6_k0 5.4065040650408658e-01
pi_w3_t6_k1 1
pi_w3_t7_k0 0
pi_w3_t7_k1 0
pi_w4_t0_k0 0
pi_w4_t0_k1 0
pi_w4_t1_k0 0
pi_w4_t1_k1 0
pi_w4_t2_k0 0
pi_w4_t2_k1 0
pi_w4_t3_k0 0
pi_w4_t3_k1 0
pi_w4_t4_k0 0
pi_w4_t4_k1 0
pi_w4_t5_k0 0
pi_w4_t5_k1 0
pi_w4_t6_k0 9.3816447779862699e-01
pi_w4_t6_k1 1.0000000000000022e+00
pi_w4_t7_k0 6.1835522201373005e-02
pi_w4_t7_k1 0
n_w0_t0_k0 0
n_w0_t0_k1 0
n_w0_t1_k0 0
n_w0_t1_k1 0
n_w0_t2_k0 0
n_w0_t2_k1 0
n_w0_t3_k0 0
n_w0_t3_k1 0
n_w0_t4_k0 0
n_w0_t4_k1 0
n_w0_t5_k0 0
n_w0_t5_k1 0
n_w0_t6_k0 0
n_w0_t6_k1 0
n_w0_t7_k0 0
n_w0_t7_k1 0
n_w1_t0_k0 0
n_w1_t0_k1 0
n_w1_t1_k0 0
n_w1_t1_k1 0
n_w1_t2_k0 0
n_w1_t2_k1 0
n_w1_t3_k0 5.5121951219509624e+00
n_w1_t3_k1 0
n_w1_t4_k0 0
n_w1_t4_k1 0
n_w1_t5_k0 0
n_w1_t5_k1 0
n_w1_t6_k0 6.4878048780490376e+00
n_w1_t6_k1 201
n_w1_t7_k0 0
n_w1_t7_k1 0
n_w2_t0_k0 0
n_w2_t0_k1 0
n_w2_t1_k0 0
n_w2_t1_k1 0
n_w2_t2_k0 0
n_w2_t2_k1 0
n_w2_t3_k0 7.9926829268289026e+01
n_w2_t3_k1 0
n_w2_t4_k0 0
n_w2_t4_k1 0
n_w2_t5_k0 0
n_w2_t5_k1 0
n_w2_t6_k0 9.4073170731710988e+01
n_w2_t6_k1 1.1700000000000024e+02
n_w2_t7_k0 0
n_w2_t7_k1 0
n_w3_t0_k0 0
n_w3_t0_k1 0
n_w3_t1_k0 0
n_w3_t1_k1 0
n_w3_t2_k0 0
n_w3_t2_k1 0
n_w3_t3_k0 8.2682926829264414e+00
n_w3_t3_k1 0
n_w3_t4_k0 0
n_w3_t4_k1 0
n_w3_t5_k0 0
n_w3_t5_k1 0
n_w3_t6_k0 9.7317073170735586e+00
n_w3_t6_k1 207
n_w3_t7_k0 0
n_w3_t7_k1 0
n_w4_t0_k0 0
n_w4_t0_k1 0
n_w4_t1_k0 0
n_w4_t1_k1 0
n_w4_t2_k0 0
n_w4_t2_k1 0
n_w4_t3_k0 0
n_w4_t3_k1 0
n_w4_t4_k0 0
n_w4_t4_k1 0
n_w4_t5_k0 0
n_w4_t5_k1 0
n_w4_t6_k0 0
n_w4_t6_k1 0
n_w4_t7_k0 0
n_w4_t7_k1 0
o_w0_r0 0
o_w0_r1 0
o_w0_r2 0
o_w1_r0 0
o_w1_r1 211.296
o_w1_r2 1.4099842987804885e+02
o_w2_r0 0
o_w2_r1 4.9996800000000025e+02
o_w2_r2 3.2989597560976006e+02
o_w3_r0 0
o_w3_r1 7.2316800000000023e+02
o_w3_r2 4.8695580792683347e+02
o_w4_r0 0
o_w4_r1 7.2316800000000023e+02
o_w4_r2 2.9945580792683330e+02
y_w0_r0 0
y_w0_r1 0
y_w0_r2 0
y_w1_r0 2.13
y_w1_r1 0.0213
y_w1_r2 8.8652500000000234e-01
y_w2_r0 2.9100000000000024e+00
y_w2_r1 2.9100000000000022e-02
y_w2_r2 2.9567500000000030e-01
y_w3_r0 2.25
y_w3_r1 0.0225
y_w3_r2 7.9562500000000203e-01
y_w4_r0 0
y_w4_r1 0
y_w4_r2 2.5000000000000022e+00
p_w0 0
s_w0 0
p_w1 1.0000000000000009e+01
s_w1 1.0000000000000009e+01
p_w2 1.0000000000000009e+01
s_w2 0
p_w3 1.0000000000000009e+01
s_w3 0
p_w4 1.0000000000000009e+01
s_w4 0
yb_w0_r0_s0 0
yb_w0_r1_s0 0
yb_w0_r2_s0 0
yb_w1_r0_s0 0
yb_w1_r1_s0 0
yb_w1_r2_s0 1
yb_w2_r0_s0 1
yb_w2_r1_s0 0
yb_w2_r2_s0 0
yb_w3_r0_s0 0
yb_w3_r1_s0 0
yb_w3_r2_s0 1
yb_w4_r0_s0 0
yb_w4_r1_s0 0
yb_w4_r2_s0 0
yb_w0_r0_s1 0
yb_w0_r1_s1 0
yb_w0_r2_s1 0
yb_w1_r0_s1 0
yb_w1_r1_s1 0
yb_w1_r2_s1 0
yb_w2_r0_s1 1
yb_w2_r1_s1 0
yb_w2_r2_s1 1
yb_w3_r0_s1 0
yb_w3_r1_s1 0
yb_w3_r2_s1 0
yb_w4_r0_s1 0
yb_w4_r1_s1 0
yb_w4_r2_s1 0
yb_w0_r0_s2 0
yb_w0_r1_s2 0
yb_w0_r2_s2 0
yb_w1_r0_s2 0
yb_w1_r1_s2 0
yb_w1_r2_s2 1
yb_w2_r0_s2 1
yb_w2_r1_s2 0
yb_w2_r2_s2 0
yb_w3_r0_s2 0
yb_w3_r1_s2 0
yb_w3_r2_s2 1
yb_w4_r0_s2 0
yb_w4_r1_s2 0
yb_w4_r2_s2 1
yb_w0_r0_s3 0
yb_w0_r1_s3 0
yb_w0_r2_s3 0
yb_w1_r0_s3 1
yb_w1_r1_s3 0
yb_w1_r2_s3 0
yb_w2_r0_s3 1
yb_w2_r1_s3 1
yb_w2_r2_s3 0
yb_w3_r0_s3 0
yb_w3_r1_s3 0
yb_w3_r2_s3 0
yb_w4_r0_s3 0
yb_w4_r1_s3 0
yb_w4_r2_s3 0
yb_w0_r0_s4 0
yb_w0_r1_s4 0
yb_w0_r2_s4 0
yb_w1_r0_s4 0
yb_w1_r1_s4 0
yb_w1_r2_s4 1
yb_w2_r0_s4 0
yb_w2_r1_s4 0
yb_w2_r2_s4 1
yb_w3_r0_s4 1
yb_w3_r1_s4 0
yb_w3_r2_s4 0
yb_w4_r0_s4 0
yb_w4_r1_s4 0
yb_w4_r2_s4 0
yb_w0_r0_s5 0
yb_w0_r1_s5 0
yb_w0_r2_s5 0
yb_w1_r0_s5 0
yb_w1_r1_s5 0
yb_w1_r2_s5 1
yb_w2_r0_s5 1
yb_w2_r1_s5 0
yb_w2_r2_s5 0
yb_w3_r0_s5 0
yb_w3_r1_s5 0
yb_w3_r2_s5 1
yb_w4_r0_s5 0
yb_w4_r1_s5 0
yb_w4_r2_s5 0
yb_w0_r0_s6 0
yb_w0_r1_s6 0
yb_w0_r2_s6 0
yb_w1_r0_s6 1
yb_w1_r1_s6 0
yb_w1_r2_s6 1
yb_w2_r0_s6 0
yb_w2_r1_s6 0
yb_w2_r2_s6 0
yb_w3_r0_s6 0
yb_w3_r1_s6 0
yb_w3_r2_s6 0
yb_w4_r0_s6 0
yb_w4_r1_s6 0
yb_w4_r2_s6 0
yb_w0_r0_s7 0
yb_w0_r1_s7 0
yb_w0_r2_s7 0
yb_w1_r0_s7 1
yb_w1_r1_s7 0
yb_w1_r2_s7 0
yb_w2_r0_s7 1
yb_w2_r1_s7 0
yb_w2_r2_s7 1
yb_w3_r0_s7 0
yb_w3_r1_s7 0
yb_w3_r2_s7 0
yb_w4_r0_s7 0
yb_w4_r1_s7 0
yb_w4_r2_s7 0
yb_w0_r0_s8 0
yb_w0_r1_s8 0
yb_w0_r2_s8 0
yb_w1_r0_s8 1
yb_w1_r1_s8 0
yb_w1_r2_s8 1
yb_w2_r0_s8 1
yb_w2_r1_s8 0
yb_w2_r2_s8 1
yb_w3_r0_s8 0
yb_w3_r1_s8 1
yb_w3_r2_s8 0
yb_w4_r0_s8 0
yb_w4_r1_s8 0
yb_w4_r2_s8 0
yb_w0_r0_s9 0
yb_w0_r1_s9 0
yb_w0_r2_s9 0
yb_w1_r0_s9 0
yb_w1_r1_s9 0
yb_w1_r2_s9 1
yb_w2_r0_s9 1
yb_w2_r1_s9 0
yb_w2_r2_s9 0
yb_w3_r0_s9 0
yb_w3_r1_s9 1
yb_w3_r2_s9 1
yb_w4_r0_s9 0
yb_w4_r1_s9 0
yb_w4_r2_s9 0
yb_w0_r0_s10 0
yb_w0_r1_s10 0
yb_w0_r2_s10 0
yb_w1_r0_s10 0
yb_w1_r1_s10 0
yb_w1_r2_s10 0
yb_w2_r0_s10 1
yb_w2_r1_s10 0
yb_w2_r2_s10 0
yb_w3_r0_s10 0
yb_w3_r1_s10 0
yb_w3_r2_s10 0
yb_w4_r0_s10 0
yb_w4_r1_s10 0
yb_w4_r2_s10 0
yb_w0_r0_s11 0
yb_w0_r1_s11 0
yb_w0_r2_s11 0
yb_w1_r0_s11 0
yb_w1_r1_s11 0
yb_w1_r2_s11 1
yb_w2_r0_s11 1
yb_w2_r1_s11 0
yb_w2_r2_s11 1
yb_w3_r0_s11 1
yb_w3_r1_s11 0
yb_w3_r2_s11 1
yb_w4_r0_s11 0
yb_w4_r1_s11 0
yb_w4_r2_s11 0
yb_w0_r0_s12 0
yb_w0_r1_s12 0
yb_w0_r2_s12 0
yb_w1_r0_s12 1
yb_w1_r1_s12 0
yb_w1_r2_s12 1
yb_w2_r0_s12 1
yb_w2_r1_s12 0
yb_w2_r2_s12 0
yb_w3_r0_s12 0
yb_w3_r1_s12 1
yb_w3_r2_s12 0
yb_w4_r0_s12 0
yb_w4_r1_s12 0
yb_w4_r2_s12 0
yb_w0_r0_s13 0
yb_w0_r1_s13 0
yb_w0_r2_s13 0
yb_w1_r0_s13 0
yb_w1_r1_s13 0
yb_w1_r2_s13 1
yb_w2_r0_s13 0
yb_w2_r1_s13 0
yb_w2_r2_s13 1
yb_w3_r0_s13 0
yb_w3_r1_s13 1
yb_w3_r2_s13 0
yb_w4_r0_s13 0
yb_w4_r1_s13 0
yb_w4_r2_s13 0
yb_w0_r0_s14 0
yb_w0_r1_s14 0
yb_w0_r2_s14 0
yb_w1_r0_s14 0
yb_w1_r1_s14 1
yb_w1_r2_s14 1
yb_w2_r0_s14 1
yb_w2_r1_s14 0
yb_w2_r2_s14 1
yb_w3_r0_s14 0
yb_w3_r1_s14 1
yb_w3_r2_s14 1
yb_w4_r0_s14 0
yb_w4_r1_s14 0
yb_w4_r2_s14 0
X(s0,w0,r0) 0
X(s0,w0,r1) 0
X(s0,w0,r2) 0
X(s0,w1,r0) 0
X(s0,w1,r1) 0
X(s0,w1,r2) 3.8400000000002737e-02
X(s0,w2,r0) 3.8400000000002737e-02
X(s0,w2,r1) 0
X(s0,w2,r2) 0
X(s0,w3,r0) 0
X(s0,w3,r1) 0
X(s0,w3,r2) 3.8400000000002737e-02
X(s0,w4,r0) 0
X(s0,w4,r1) 0
X(s0,w4,r2) 0
X(s1,w0,r0) 0
X(s1,w0,r1) 0
X(s1,w0,r2) 0
X(s1,w1,r0) 0
X(s1,w1,r1) 0
X(s1,w1,r2) 0
X(s1,w2,r0) 0
X(s1,w2,r1) 0
X(s1,w2,r2) 0
X(s1,w3,r0) 0
X(s1,w3,r1) 0
X(s1,w3,r2) 0
X(s1,w4,r0) 0
X(s1,w4,r1) 0
X(s1,w4,r2) 0
X(s2,w0,r0) 0
X(s2,w0,r1) 0
X(s2,w0,r2) 0
X(s2,w1,r0) 0
X(s2,w1,r1) 0
X(s2,w1,r2) 5.0000000000000222e-01
X(s2,w2,r0) 5.0000000000000222e-01
X(s2,w2,r1) 0
X(s2,w2,r2) 0
X(s2,w3,r0) 0
X(s2,w3,r1) 0
X(s2,w3,r2) 5.0000000000000222e-01
X(s2,w4,r0) 0
X(s2,w4,r1) 0
X(s2,w4,r2) 5.0000000000000222e-01
X(s3,w0,r0) 0
X(s3,w0,r1) 0
X(s3,w0,r2) 0
X(s3,w1,r0) 2.9100000000000022e-02
X(s3,w1,r1) 0
X(s3,w1,r2) 0
X(s3,w2,r0) 2.9100000000000022e-02
X(s3,w2,r1) 2.9100000000000022e-02
X(s3,w2,r2) 0
X(s3,w3,r0) 0
X(s3,w3,r1) 0
X(s3,w3,r2) 0
X(s3,w4,r0) 0
X(s3,w4,r1) 0
X(s3,w4,r2) 0
X(s4,w0,r0) 0
X(s4,w0,r1) 0
X(s4,w0,r2) 0
X(s4,w1,r0) 0
X(s4,w1,r1) 0
X(s4,w1,r2) 1.4375000000000276e-02
X(s4,w2,r0) 0
X(s4,w2,r1) 0
X(s4,w2,r2) 1.4375000000000276e-02
X(s4,w3,r0) 1.4375000000000276e-02
X(s4,w3,r1) 0
X(s4,w3,r2) 0
X(s4,w4,r0) 0
X(s4,w4,r1) 0
X(s4,w4,r2) 0
X(s5,w0,r0) 0
X(s5,w0,r1) 0
X(s5,w0,r2) 0
X(s5,w1,r0) 0
X(s5,w1,r1) 0
X(s5,w1,r2) 0
X(s5,w2,r0) 0
X(s5,w2,r1) 0
X(s5,w2,r2) 0
X(s5,w3,r0) 0
X(s5,w3,r1) 0
X(s5,w3,r2) 0
X(s5,w4,r0) 0
X(s5,w4,r1) 0
X(s5,w4,r2) 0
X(s6,w0,r0) 0
X(s6,w0,r1) 0
X(s6,w0,r2) 0
X(s6,w1,r0) 7.5624999999997333e-02
X(s6,w1,r1) 0
X(s6,w1,r2) 7.5624999999997333e-02
X(s6,w2,r0) 0
X(s6,w2,r1) 0
X(s6,w2,r2) 0
X(s6,w3,r0) 0
X(s6,w3,r1) 0
X(s6,w3,r2) 0
X(s6,w4,r0) 0
X(s6,w4,r1) 0
X(s6,w4,r2) 0
X(s7,w0,r0) 0
X(s7,w0,r1) 0
X(s7,w0,r2) 0
X(s7,w1,r0) 2.4375000000000036e-02
X(s7,w1,r1) 0
X(s7,w1,r2) 0
X(s7,w2,r0) 2.4375000000000036e-02
X(s7,w2,r1) 0
X(s7,w2,r2) 2.4375000000000036e-02
X(s7,w3,r0) 0
X(s7,w3,r1) 0
X(s7,w3,r2) 0
X(s7,w4,r0) 0
X(s7,w4,r1) 0
X(s7,w4,r2) 0
X(s8,w0,r0) 0
X(s8,w0,r1) 0
X(s8,w0,r2) 0
X(s8,w1,r0) 0
X(s8,w1,r1) 0
X(s8,w1,r2) 0
X(s8,w2,r0) 0
X(s8,w2,r1) 0
X(s8,w2,r2) 0
X(s8,w3,r0) 0
X(s8,w3,r1) 0
X(s8,w3,r2) 0
X(s8,w4,r0) 0
X(s8,w4,r1) 0
X(s8,w4,r2) 0
X(s9,w0,r0) 0
X(s9,w0,r1) 0
X(s9,w0,r2) 0
X(s9,w1,r0) 0
X(s9,w1,r1) 0
X(s9,w1,r2) 2.9999999999749324e-04
X(s9,w2,r0) 2.9999999999749324e-04
X(s9,w2,r1) 0
X(s9,w2,r2) 0
X(s9,w3,r0) 0
X(s9,w3,r1) 2.9999999999749324e-04
X(s9,w3,r2) 2.9999999999749324e-04
X(s9,w4,r0) 0
X(s9,w4,r1) 0
X(s9,w4,r2) 0
X(s10,w0,r0) 0
X(s10,w0,r1) 0
X(s10,w0,r2) 0
X(s10,w1,r0) 0
X(s10,w1,r1) 0
X(s10,w1,r2) 0
X(s10,w2,r0) 5.9999999999997666e-02
X(s10,w2,r1) 0
X(s10,w2,r2) 0
X(s10,w3,r0) 0
X(s10,w3,r1) 0
X(s10,w3,r2) 0
X(s10,w4,r0) 0
X(s10,w4,r1) 0
X(s10,w4,r2) 0
X(s11,w0,r0) 0
X(s11,w0,r1) 0
X(s11,w0,r2) 0
X(s11,w1,r0) 0
X(s11,w1,r1) 0
X(s11,w1,r2) 2.3562499999999972e-01
X(s11,w2,r0) 2.3562499999999972e-01
X(s11,w2,r1) 0
X(s11,w2,r2) 2.3562499999999972e-01
X(s11,w3,r0) 2.3562499999999972e-01
X(s11,w3,r1) 0
X(s11,w3,r2) 2.3562499999999972e-01
X(s11,w4,r0) 0
X(s11,w4,r1) 0
X(s11,w4,r2) 0
X(s12,w0,r0) 0
X(s12,w0,r1) 0
X(s12,w0,r2) 0
X(s12,w1,r0) 9.0000000000250990e-04
X(s12,w1,r1) 0
X(s12,w1,r2) 9.0000000000250990e-04
X(s12,w2,r0) 9.0000000000250990e-04
X(s12,w2,r1) 0
X(s12,w2,r2) 0
X(s12,w3,r0) 0
X(s12,w3,r1) 9.0000000000250990e-04
X(s12,w3,r2) 0
X(s12,w4,r0) 0
X(s12,w4,r1) 0
X(s12,w4,r2) 0
X(s13,w0,r0) 0
X(s13,w0,r1) 0
X(s13,w0,r2) 0
X(s13,w1,r0) 0
X(s13,w1,r1) 0
X(s13,w1,r2) 0
X(s13,w2,r0) 0
X(s13,w2,r1) 0
X(s13,w2,r2) 0
X(s13,w3,r0) 0
X(s13,w3,r1) 0
X(s13,w3,r2) 0
X(s13,w4,r0) 0
X(s13,w4,r1) 0
X(s13,w4,r2) 0
X(s14,w0,r0) 0
X(s14,w0,r1) 0
X(s14,w0,r2) 0
X(s14,w1,r0) 0
X(s14,w1,r1) 0.0213
X(s14,w1,r2) 0.0213
X(s14,w2,r0) 0.0213
X(s14,w2,r1) 0
X(s14,w2,r2) 0.0213
X(s14,w3,r0) 0
X(s14,w3,r1) 0.0213
X(s14,w3,r2) 0.0213
X(s14,w4,r0) 0
X(s14,w4,r1) 0
X(s14,w4,r2) 0
